; MSIZE CALLDATASIZE ADD PUSH cw_1 SWAP1 => PUSH cw_1 CALLDATASIZE MSIZE ADD
(set-option :produce-proofs true)
; 
(set-info :status unknown)
(declare-fun storage_t ((_ BitVec 256) (_ BitVec 256) (_ BitVec 256) Int (_ BitVec 256)) (_ BitVec 256))
(declare-fun w_1 () (_ BitVec 256))
(declare-fun storage_s ((_ BitVec 256) (_ BitVec 256) (_ BitVec 256) Int (_ BitVec 256)) (_ BitVec 256))
(declare-fun exc_halt_t (Int) Bool)
(declare-fun exc_halt_s (Int) Bool)
(declare-fun stack_t ((_ BitVec 256) (_ BitVec 256) (_ BitVec 256) Int (_ BitVec 6)) (_ BitVec 256))
(declare-fun stack_s ((_ BitVec 256) (_ BitVec 256) (_ BitVec 256) Int (_ BitVec 6)) (_ BitVec 256))
(declare-fun sc_t (Int) (_ BitVec 6))
(declare-fun sc_s (Int) (_ BitVec 6))
(declare-fun used_gas_t ((_ BitVec 256) (_ BitVec 256) (_ BitVec 256) Int) Int)
(declare-fun used_gas_s ((_ BitVec 256) (_ BitVec 256) (_ BitVec 256) Int) Int)
(assert
 (exists ((x_CALLDATASIZE (_ BitVec 256)) (x_MSIZE (_ BitVec 256)) )(let (($x10083 (forall ((w (_ BitVec 256)) )(let ((?x10136 (storage_t w_1 x_CALLDATASIZE x_MSIZE 4 w)))
 (let ((?x10137 (storage_s w_1 x_CALLDATASIZE x_MSIZE 5 w)))
 (= ?x10137 ?x10136))))
 ))
 (let (($x3723 (exc_halt_t 4)))
 (let (($x3979 (exc_halt_s 5)))
 (let (($x7567 (= $x3979 $x3723)))
 (let (($x4110 (forall ((n (_ BitVec 6)) )(let ((?x10074 (stack_t w_1 x_CALLDATASIZE x_MSIZE 4 n)))
 (let ((?x3654 (stack_s w_1 x_CALLDATASIZE x_MSIZE 5 n)))
 (let (($x7147 (= ?x3654 ?x10074)))
 (let ((?x3757 (sc_t 4)))
 (let (($x4910 (bvsle ?x3757 n)))
 (or $x4910 $x7147)))))))
 ))
 (let ((?x3757 (sc_t 4)))
 (let ((?x805 (sc_s 5)))
 (let (($x9143 (= ?x805 ?x3757)))
 (let ((?x10461 (used_gas_t w_1 x_CALLDATASIZE x_MSIZE 0)))
 (let ((?x10474 (used_gas_s w_1 x_CALLDATASIZE x_MSIZE 0)))
 (let (($x10538 (= ?x10474 ?x10461)))
 (let (($x10479 (forall ((w (_ BitVec 256)) )(let ((?x3583 (storage_t w_1 x_CALLDATASIZE x_MSIZE 0 w)))
 (let ((?x10582 (storage_s w_1 x_CALLDATASIZE x_MSIZE 0 w)))
 (= ?x10582 ?x3583))))
 ))
 (let (($x56 (exc_halt_t 0)))
 (let (($x57 (exc_halt_s 0)))
 (let (($x58 (= $x57 $x56)))
 (let (($x995 (forall ((n (_ BitVec 6)) )(let ((?x10458 (stack_t w_1 x_CALLDATASIZE x_MSIZE 0 n)))
 (let ((?x10541 (stack_s w_1 x_CALLDATASIZE x_MSIZE 0 n)))
 (let (($x6915 (= ?x10541 ?x10458)))
 (let ((?x63 (sc_t 0)))
 (let (($x5858 (bvsle ?x63 n)))
 (or $x5858 $x6915)))))))
 ))
 (let ((?x63 (sc_t 0)))
 (let ((?x72 (sc_s 0)))
 (let (($x73 (= ?x72 ?x63)))
 (let (($x2023 (= $x3723 (or (exc_halt_t 3) (not (bvsle (_ bv0 6) (bvadd (_ bv62 6) (sc_t 3))))))))
 (let (($x475 (forall ((w (_ BitVec 256)) )(let ((?x6080 (storage_t w_1 x_CALLDATASIZE x_MSIZE 3 w)))
 (let ((?x10136 (storage_t w_1 x_CALLDATASIZE x_MSIZE 4 w)))
 (= ?x10136 ?x6080))))
 ))
 (let (($x2008 (forall ((n (_ BitVec 6)) )(let ((?x3491 (stack_t w_1 x_CALLDATASIZE x_MSIZE 3 n)))
 (let ((?x10074 (stack_t w_1 x_CALLDATASIZE x_MSIZE 4 n)))
 (or (= ?x10074 ?x3491) (bvsle (bvadd (_ bv62 6) (sc_t 3)) n)))))
 ))
 (let (($x10176 (= (used_gas_t w_1 x_CALLDATASIZE x_MSIZE 4) (+ 3 (used_gas_t w_1 x_CALLDATASIZE x_MSIZE 3)))))
 (let ((?x2034 (bvadd (stack_t w_1 x_CALLDATASIZE x_MSIZE 3 (bvadd (_ bv63 6) (sc_t 3))) (stack_t w_1 x_CALLDATASIZE x_MSIZE 3 (bvadd (_ bv62 6) (sc_t 3))))))
 (let (($x903 (exc_halt_t 2)))
 (let (($x10874 (or $x903 (not (= ((_ extract 6 6) (bvadd (_ bv1 7) (concat (_ bv0 1) (sc_t 2)))) (_ bv0 1))))))
 (let (($x10336 (exc_halt_t 3)))
 (let (($x10875 (= $x10336 $x10874)))
 (let (($x4132 (forall ((w (_ BitVec 256)) )(let ((?x3685 (storage_t w_1 x_CALLDATASIZE x_MSIZE 2 w)))
 (let ((?x6080 (storage_t w_1 x_CALLDATASIZE x_MSIZE 3 w)))
 (= ?x6080 ?x3685))))
 ))
 (let (($x9416 (forall ((n (_ BitVec 6)) )(let ((?x8428 (stack_t w_1 x_CALLDATASIZE x_MSIZE 2 n)))
 (let ((?x3491 (stack_t w_1 x_CALLDATASIZE x_MSIZE 3 n)))
 (let ((?x4056 (sc_t 2)))
 (let (($x355 (bvsle ?x4056 n)))
 (or $x355 (= ?x3491 ?x8428)))))))
 ))
 (let ((?x2012 (sc_t 3)))
 (let (($x5182 (= ?x2012 (bvadd (_ bv1 6) (sc_t 2)))))
 (let ((?x10609 (used_gas_t w_1 x_CALLDATASIZE x_MSIZE 3)))
 (let (($x265 (not (= ((_ extract 6 6) (bvadd (_ bv1 7) (concat (_ bv0 1) (sc_t 1)))) (_ bv0 1)))))
 (let (($x1920 (exc_halt_t 1)))
 (let (($x2010 (forall ((w (_ BitVec 256)) )(let ((?x4331 (storage_t w_1 x_CALLDATASIZE x_MSIZE 1 w)))
 (let ((?x3685 (storage_t w_1 x_CALLDATASIZE x_MSIZE 2 w)))
 (= ?x3685 ?x4331))))
 ))
 (let (($x9524 (forall ((n (_ BitVec 6)) )(let ((?x4023 (sc_t 1)))
 (let (($x10889 (bvsle ?x4023 n)))
 (let ((?x10628 (stack_t w_1 x_CALLDATASIZE x_MSIZE 1 n)))
 (let ((?x8428 (stack_t w_1 x_CALLDATASIZE x_MSIZE 2 n)))
 (or (= ?x8428 ?x10628) $x10889))))))
 ))
 (let ((?x4056 (sc_t 2)))
 (let (($x8278 (= ?x4056 (bvadd (_ bv1 6) (sc_t 1)))))
 (let ((?x3753 (used_gas_t w_1 x_CALLDATASIZE x_MSIZE 2)))
 (let (($x2670 (= $x1920 (or $x56 (not (= ((_ extract 6 6) (bvadd (_ bv1 7) (concat (_ bv0 1) ?x63))) (_ bv0 1)))))))
 (let (($x4112 (forall ((w (_ BitVec 256)) )(let ((?x3583 (storage_t w_1 x_CALLDATASIZE x_MSIZE 0 w)))
 (let ((?x4331 (storage_t w_1 x_CALLDATASIZE x_MSIZE 1 w)))
 (= ?x4331 ?x3583))))
 ))
 (let (($x8038 (forall ((n (_ BitVec 6)) )(let ((?x63 (sc_t 0)))
 (let (($x5858 (bvsle ?x63 n)))
 (let ((?x10458 (stack_t w_1 x_CALLDATASIZE x_MSIZE 0 n)))
 (let ((?x10628 (stack_t w_1 x_CALLDATASIZE x_MSIZE 1 n)))
 (or (= ?x10628 ?x10458) $x5858))))))
 ))
 (let ((?x4023 (sc_t 1)))
 (let (($x5939 (= ?x4023 (bvadd (_ bv1 6) ?x63))))
 (let (($x4660 (= $x3979 (or (exc_halt_s 4) (not (bvsle (_ bv0 6) (bvadd (_ bv62 6) (sc_s 4))))))))
 (let (($x9266 (forall ((w (_ BitVec 256)) )(let ((?x8543 (storage_s w_1 x_CALLDATASIZE x_MSIZE 4 w)))
 (let ((?x10137 (storage_s w_1 x_CALLDATASIZE x_MSIZE 5 w)))
 (= ?x10137 ?x8543))))
 ))
 (let (($x8922 (forall ((n (_ BitVec 6)) )(let ((?x10654 (stack_s w_1 x_CALLDATASIZE x_MSIZE 4 n)))
 (let ((?x3654 (stack_s w_1 x_CALLDATASIZE x_MSIZE 5 n)))
 (let ((?x4305 (sc_s 4)))
 (let ((?x10588 (bvadd (_ bv62 6) ?x4305)))
 (let (($x1394 (bvsle ?x10588 n)))
 (or $x1394 (= ?x3654 ?x10654))))))))
 ))
 (let ((?x4305 (sc_s 4)))
 (let (($x10898 (= ?x805 ?x4305)))
 (let (($x10053 (= (used_gas_s w_1 x_CALLDATASIZE x_MSIZE 5) (+ 3 (used_gas_s w_1 x_CALLDATASIZE x_MSIZE 4)))))
 (let (($x8764 (= (stack_s w_1 x_CALLDATASIZE x_MSIZE 5 (bvadd (_ bv62 6) ?x805)) (stack_s w_1 x_CALLDATASIZE x_MSIZE 4 (bvadd (_ bv63 6) ?x4305)))))
 (let (($x10131 (= (stack_s w_1 x_CALLDATASIZE x_MSIZE 5 (bvadd (_ bv63 6) ?x805)) (stack_s w_1 x_CALLDATASIZE x_MSIZE 4 (bvadd (_ bv62 6) ?x4305)))))
 (let (($x10592 (not (= ((_ extract 6 6) (bvadd (_ bv1 7) (concat (_ bv0 1) (sc_s 3)))) (_ bv0 1)))))
 (let (($x292 (exc_halt_s 3)))
 (let (($x64 (exc_halt_s 4)))
 (let (($x5400 (forall ((w (_ BitVec 256)) )(let ((?x10665 (storage_s w_1 x_CALLDATASIZE x_MSIZE 3 w)))
 (let ((?x8543 (storage_s w_1 x_CALLDATASIZE x_MSIZE 4 w)))
 (= ?x8543 ?x10665))))
 ))
 (let (($x10756 (forall ((n (_ BitVec 6)) )(let ((?x10667 (stack_s w_1 x_CALLDATASIZE x_MSIZE 3 n)))
 (let ((?x10654 (stack_s w_1 x_CALLDATASIZE x_MSIZE 4 n)))
 (or (bvsle (sc_s 3) n) (= ?x10654 ?x10667)))))
 ))
 (let (($x10912 (= ?x4305 (bvadd (_ bv1 6) (sc_s 3)))))
 (let ((?x8539 (used_gas_s w_1 x_CALLDATASIZE x_MSIZE 4)))
 (let (($x6866 (= $x292 (or (exc_halt_s 2) (not (bvsle (_ bv0 6) (bvadd (_ bv62 6) (sc_s 2))))))))
 (let (($x2555 (forall ((w (_ BitVec 256)) )(let ((?x10675 (storage_s w_1 x_CALLDATASIZE x_MSIZE 2 w)))
 (let ((?x10665 (storage_s w_1 x_CALLDATASIZE x_MSIZE 3 w)))
 (= ?x10665 ?x10675))))
 ))
 (let (($x10751 (forall ((n (_ BitVec 6)) )(let ((?x6048 (stack_s w_1 x_CALLDATASIZE x_MSIZE 2 n)))
 (let ((?x10667 (stack_s w_1 x_CALLDATASIZE x_MSIZE 3 n)))
 (or (= ?x10667 ?x6048) (bvsle (bvadd (_ bv62 6) (sc_s 2)) n)))))
 ))
 (let ((?x10669 (used_gas_s w_1 x_CALLDATASIZE x_MSIZE 3)))
 (let ((?x10746 (bvadd (stack_s w_1 x_CALLDATASIZE x_MSIZE 2 (bvadd (_ bv63 6) (sc_s 2))) (stack_s w_1 x_CALLDATASIZE x_MSIZE 2 (bvadd (_ bv62 6) (sc_s 2))))))
 (let (($x189 (exc_halt_s 1)))
 (let (($x2642 (or $x189 (not (= ((_ extract 6 6) (bvadd (_ bv1 7) (concat (_ bv0 1) (sc_s 1)))) (_ bv0 1))))))
 (let (($x247 (exc_halt_s 2)))
 (let (($x3676 (= $x247 $x2642)))
 (let (($x10742 (forall ((w (_ BitVec 256)) )(let ((?x10688 (storage_s w_1 x_CALLDATASIZE x_MSIZE 1 w)))
 (let ((?x10675 (storage_s w_1 x_CALLDATASIZE x_MSIZE 2 w)))
 (= ?x10675 ?x10688))))
 ))
 (let (($x10741 (forall ((n (_ BitVec 6)) )(let ((?x154 (sc_s 1)))
 (let (($x10983 (bvsle ?x154 n)))
 (let ((?x10687 (stack_s w_1 x_CALLDATASIZE x_MSIZE 1 n)))
 (let ((?x6048 (stack_s w_1 x_CALLDATASIZE x_MSIZE 2 n)))
 (or (= ?x6048 ?x10687) $x10983))))))
 ))
 (let ((?x218 (sc_s 2)))
 (let (($x10982 (= ?x218 (bvadd (_ bv1 6) (sc_s 1)))))
 (let ((?x943 (used_gas_s w_1 x_CALLDATASIZE x_MSIZE 2)))
 (let (($x2046 (= $x189 (or $x57 (not (= ((_ extract 6 6) (bvadd (_ bv1 7) (concat (_ bv0 1) ?x72))) (_ bv0 1)))))))
 (let (($x10735 (forall ((w (_ BitVec 256)) )(let ((?x10582 (storage_s w_1 x_CALLDATASIZE x_MSIZE 0 w)))
 (let ((?x10688 (storage_s w_1 x_CALLDATASIZE x_MSIZE 1 w)))
 (= ?x10688 ?x10582))))
 ))
 (let (($x2321 (forall ((n (_ BitVec 6)) )(let ((?x72 (sc_s 0)))
 (let (($x10975 (bvsle ?x72 n)))
 (let ((?x10541 (stack_s w_1 x_CALLDATASIZE x_MSIZE 0 n)))
 (let ((?x10687 (stack_s w_1 x_CALLDATASIZE x_MSIZE 1 n)))
 (or (= ?x10687 ?x10541) $x10975))))))
 ))
 (let ((?x154 (sc_s 1)))
 (let (($x7560 (= ?x154 (bvadd (_ bv1 6) ?x72))))
 (let (($x6204 (forall ((w (_ BitVec 256)) )(let ((?x10582 (storage_s w_1 x_CALLDATASIZE x_MSIZE 0 w)))
 (= ?x10582 (_ bv0 256))))
 ))
 (let (($x10278 (= ?x10474 0)))
 (let (($x4937 (not $x57)))
 (let (($x136 (= ?x72 (_ bv0 6))))
 (and $x136 $x4937 $x10278 $x6204 (= (stack_s w_1 x_CALLDATASIZE x_MSIZE 1 ?x72) x_MSIZE) (= (used_gas_s w_1 x_CALLDATASIZE x_MSIZE 1) (+ 2 ?x10474)) $x7560 $x2321 $x10735 $x2046 (= (stack_s w_1 x_CALLDATASIZE x_MSIZE 2 ?x154) x_CALLDATASIZE) (= ?x943 (+ 2 (used_gas_s w_1 x_CALLDATASIZE x_MSIZE 1))) $x10982 $x10741 $x10742 $x3676 (= (stack_s w_1 x_CALLDATASIZE x_MSIZE 3 (bvadd (_ bv63 6) (sc_s 3))) ?x10746) (= ?x10669 (+ 3 ?x943)) (= (sc_s 3) (bvadd (_ bv63 6) ?x218)) $x10751 $x2555 $x6866 (= (stack_s w_1 x_CALLDATASIZE x_MSIZE 4 (sc_s 3)) w_1) (= ?x8539 (+ 3 ?x10669)) $x10912 $x10756 $x5400 (= $x64 (or $x292 $x10592)) $x10131 $x8764 $x10053 $x10898 $x8922 $x9266 $x4660 (= (stack_t w_1 x_CALLDATASIZE x_MSIZE 1 ?x63) w_1) (= (used_gas_t w_1 x_CALLDATASIZE x_MSIZE 1) (+ 3 ?x10461)) $x5939 $x8038 $x4112 $x2670 (= (stack_t w_1 x_CALLDATASIZE x_MSIZE 2 ?x4023) x_CALLDATASIZE) (= ?x3753 (+ 2 (used_gas_t w_1 x_CALLDATASIZE x_MSIZE 1))) $x8278 $x9524 $x2010 (= $x903 (or $x1920 $x265)) (= (stack_t w_1 x_CALLDATASIZE x_MSIZE 3 ?x4056) x_MSIZE) (= ?x10609 (+ 2 ?x3753)) $x5182 $x9416 $x4132 $x10875 (= (stack_t w_1 x_CALLDATASIZE x_MSIZE 4 (bvadd (_ bv63 6) ?x3757)) ?x2034) $x10176 (= ?x3757 (bvadd (_ bv63 6) ?x2012)) $x2008 $x475 $x2023 $x73 $x995 $x58 $x10479 $x10538 (not (and $x9143 $x4110 $x7567 $x10083)))))))))))))))))))))))))))))))))))))))))))))))))))))))))))))))))))))))))))))))))))))))
 )
(check-sat)
(get-proof)
